n_res = 4;
rc = [ 22, 23, 21, 27 ];
n_tasks = 30;
d = [ 1, 5, 1, 9, 4, 6, 3, 8, 10, 4, 6, 10, 9, 5, 1, 10, 2, 4, 4, 7, 3, 8, 9, 7, 7, 2, 9, 6, 5, 5 ];
rr = [| 2, 7, 7, 4, 3, 3, 8, 3, 4, 2, 9, 2, 10, 4, 2, 2, 5, 10, 9, 8, 7, 7, 8, 7, 6, 10, 8, 7, 1, 10
      | 1, 3, 6, 8, 9, 9, 9, 7, 3, 4, 6, 7, 5, 8, 1, 3, 7, 2, 3, 5, 5, 5, 1, 10, 6, 9, 2, 6, 8, 3
      | 3, 4, 10, 4, 7, 10, 10, 4, 6, 2, 5, 9, 4, 6, 1, 10, 9, 2, 1, 7, 10, 10, 1, 6, 7, 7, 9, 2, 8, 1
      | 7, 10, 1, 10, 10, 9, 9, 9, 4, 1, 10, 1, 10, 3, 6, 8, 2, 9, 2, 3, 5, 10, 4, 10, 8, 10, 2, 9, 8, 4 |];
suc = [ { 2 }, 
        { 3 }, 
        { 4 }, 
        { 5 }, 
        { 6 }, 
        { 7 }, 
        { 8 }, 
        { 9 }, 
        { 10 }, 
        { 11 }, 
        { 12 }, 
        { 13 }, 
        { 14 }, 
        { 15 }, 
        { 16 }, 
        { 17 }, 
        { 18 }, 
        { 19 }, 
        { 20 }, 
        { 21 }, 
        { 22 }, 
        { 23 }, 
        { 24 }, 
        { 25 }, 
        { 26 }, 
        { 27 }, 
        { 28 }, 
        { 29 }, 
        { 30 }, 
        {  }]; 
